
n_res = 4;
rcap = [68, 65, 236, 221];
rtype = [1, 1, 2, 2];
n_tasks = 50;
modes =  [{1, 2, 3}, {4, 5, 6}, {7, 8, 9}, {10, 11, 12}, {13, 14, 15}, {16, 17, 18}, {19, 20, 21}, {22, 23, 24}, {25, 26, 27}, {28, 29, 30}, {31, 32, 33}, {34, 35, 36}, {37, 38, 39}, {40, 41, 42}, {43, 44, 45}, {46, 47, 48}, {49, 50, 51}, {52, 53, 54}, {55, 56, 57}, {58, 59, 60}, {61, 62, 63}, {64, 65, 66}, {67, 68, 69}, {70, 71, 72}, {73, 74, 75}, {76, 77, 78}, {79, 80, 81}, {82, 83, 84}, {85, 86, 87}, {88, 89, 90}, {91, 92, 93}, {94, 95, 96}, {97, 98, 99}, {100, 101, 102}, {103, 104, 105}, {106, 107, 108}, {109, 110, 111}, {112, 113, 114}, {115, 116, 117}, {118, 119, 120}, {121, 122, 123}, {124, 125, 126}, {127, 128, 129}, {130, 131, 132}, {133, 134, 135}, {136, 137, 138}, {139, 140, 141}, {142, 143, 144}, {145, 146, 147}, {148, 149, 150}];
succ =  [{49, 48, 41, 32, 29, 28, 26, 20, 17, 14}, {48, 47, 44, 29, 28, 27, 21, 16, 14}, {48, 44, 40, 35, 31, 28, 27, 12}, {49, 47, 44, 40, 35, 31, 30, 28, 27, 16}, {44, 40, 36, 35, 28, 24, 16}, {46, 44, 42, 40, 39, 37, 35, 31, 30, 27}, {49, 45, 41, 39, 38, 37, 36, 30, 20}, {46, 45, 41, 40, 30, 29, 28, 26}, {46, 44, 42, 40, 34, 27, 26}, {50, 47, 44, 43, 42, 41, 40, 39, 37, 36, 35, 30}, {49, 48, 44, 43, 41, 40, 35, 32, 30, 29}, {49, 46, 36, 30, 16}, {45, 43, 42, 40, 38, 37, 35, 33, 28}, {46, 45, 43, 42, 40, 38, 37, 35, 30}, {46, 43, 41, 39, 38, 37, 35, 29}, {45, 43, 42, 41, 39, 38, 37, 34}, {47, 44, 43, 42, 40, 36, 35, 34}, {47, 44, 41, 40, 38, 36, 35, 34}, {47, 43, 37, 35, 28}, {44, 42, 40, 35, 34}, {45, 39, 38, 35, 34}, {45, 40, 39, 37, 35}, {42, 39, 38, 37, 34}, {48, 41, 37, 30}, {42, 38, 36, 30}, {43, 39, 37, 35}, {41, 38, 36}, {39, 34}, {36, 34}, {34}, {36}, {38}, {36}, {}, {}, {}, {}, {}, {}, {}, {}, {}, {}, {}, {}, {}, {}, {}, {}, {}];
n_opt = 150;
dur = [4, 7, 8, 1, 2, 9, 4, 5, 9, 3, 5, 6, 2, 5, 9, 1, 8, 10, 2, 7, 9, 3, 4, 5, 1, 2, 10, 5, 8, 9, 4, 7, 10, 1, 7, 10, 3, 6, 7, 2, 6, 7, 2, 6, 7, 2, 7, 10, 4, 7, 9, 1, 8, 9, 4, 5, 10, 2, 3, 8, 5, 6, 8, 4, 6, 7, 3, 6, 8, 2, 4, 7, 3, 4, 10, 5, 6, 8, 5, 8, 9, 2, 4, 5, 1, 2, 3, 1, 3, 10, 1, 9, 10, 4, 6, 8, 3, 4, 5, 2, 4, 7, 1, 7, 9, 1, 3, 7, 2, 5, 8, 2, 4, 8, 2, 9, 10, 1, 5, 8, 1, 2, 8, 2, 6, 7, 4, 6, 7, 5, 6, 8, 1, 7, 9, 1, 5, 6, 2, 3, 9, 2, 5, 10, 5, 9, 10, 5, 6, 10];
rreq = [|6, 4, 3, 9, 7, 2, 7, 7, 3, 8, 7, 6, 7, 5, 3, 4, 4, 4, 10, 8, 8, 8, 6, 6, 8, 7, 3, 6, 5, 3, 8, 8, 7, 3, 2, 2, 8, 5, 5, 5, 4, 4, 6, 2, 1, 8, 8, 4, 2, 2, 2, 9, 9, 9, 5, 4, 1, 8, 8, 8, 9, 8, 7, 8, 5, 2, 2, 2, 2, 7, 4, 2, 8, 6, 5, 7, 4, 3, 5, 5, 5, 6, 5, 5, 5, 3, 3, 5, 3, 2, 6, 4, 2, 2, 2, 1, 8, 8, 7, 9, 5, 4, 4, 4, 2, 5, 4, 4, 6, 5, 3, 8, 8, 7, 6, 6, 6, 9, 7, 7, 8, 7, 7, 7, 6, 6, 5, 5, 3, 6, 6, 3, 9, 5, 4, 7, 6, 4, 7, 7, 5, 7, 5, 4, 7, 5, 5, 6, 4, 3
 |5, 5, 4, 7, 7, 3, 9, 8, 7, 3, 3, 1, 6, 4, 4, 7, 4, 4, 9, 9, 9, 9, 5, 4, 6, 6, 5, 7, 5, 4, 9, 8, 8, 5, 3, 3, 6, 5, 5, 8, 7, 7, 10, 9, 9, 5, 4, 2, 9, 7, 5, 8, 5, 4, 2, 2, 1, 9, 7, 7, 7, 5, 4, 6, 5, 3, 6, 5, 5, 9, 9, 9, 5, 4, 3, 8, 7, 6, 10, 5, 2, 3, 3, 3, 1, 1, 1, 9, 8, 7, 5, 3, 3, 7, 5, 4, 7, 5, 5, 3, 3, 3, 6, 6, 6, 4, 4, 3, 8, 7, 2, 8, 6, 3, 8, 8, 6, 7, 6, 6, 5, 4, 2, 7, 3, 3, 7, 5, 2, 2, 2, 1, 5, 4, 4, 4, 3, 3, 7, 6, 3, 7, 7, 7, 8, 7, 5, 2, 2, 2
 |10, 8, 7, 6, 5, 4, 3, 3, 1, 3, 2, 2, 7, 7, 7, 9, 7, 6, 8, 7, 5, 7, 5, 5, 5, 5, 5, 5, 4, 4, 7, 5, 4, 7, 6, 4, 3, 3, 2, 4, 3, 3, 8, 6, 5, 2, 1, 1, 5, 4, 2, 5, 4, 3, 9, 7, 7, 7, 6, 6, 5, 4, 4, 6, 4, 4, 5, 4, 3, 6, 5, 3, 8, 6, 5, 6, 6, 5, 2, 1, 1, 9, 7, 7, 2, 2, 2, 4, 4, 4, 7, 6, 5, 9, 9, 8, 6, 6, 5, 6, 6, 6, 9, 5, 4, 2, 2, 2, 7, 7, 6, 5, 4, 3, 9, 9, 8, 7, 4, 2, 5, 4, 4, 6, 5, 4, 5, 4, 4, 4, 3, 3, 8, 6, 5, 5, 5, 5, 5, 3, 2, 9, 9, 9, 4, 3, 1, 8, 8, 8
 |7, 3, 3, 7, 7, 6, 3, 3, 3, 5, 4, 4, 10, 6, 3, 5, 4, 1, 8, 4, 2, 4, 3, 2, 5, 5, 5, 7, 6, 5, 8, 7, 7, 8, 4, 4, 7, 5, 5, 8, 5, 4, 5, 5, 4, 5, 4, 4, 7, 7, 7, 8, 5, 4, 7, 5, 5, 3, 3, 2, 8, 4, 3, 6, 5, 2, 7, 6, 6, 8, 7, 4, 7, 6, 5, 5, 4, 4, 10, 6, 6, 6, 5, 2, 6, 5, 4, 4, 3, 3, 3, 3, 3, 8, 4, 3, 8, 4, 3, 7, 7, 6, 2, 2, 1, 8, 4, 4, 1, 1, 1, 3, 2, 2, 10, 9, 9, 5, 3, 2, 4, 3, 3, 3, 3, 3, 10, 8, 7, 10, 8, 5, 7, 7, 5, 6, 4, 3, 7, 4, 2, 6, 5, 1, 4, 4, 4, 7, 5, 2|];